
/*Modelo LP Auto-generado*/
min:
0x0101 + 1000x0102 + 1000x0103 + 1000x0104 + 1000x0105 + 1000x0106 + 1000x0107 + 1000x0108 + 1000x0109 + 1000x0110 + 1000x0111 + 1000x0112 + 1000x0113 + 
1000x0201 + 1000x0202 + 1000x0203 + 1000x0204 + 1000x0205 + 1000x0206 + 1000x0207 + 1000x0208 + 1000x0209 + 0x0210 + 1000x0211 + 1000x0212 + 1000x0213 + 
0x0301 + 8x0302 + 5x0303 + 6x0304 + 1000x0305 + 1000x0306 + 14x0307 + 1000x0308 + 1000x0309 + 1000x0310 + 1000x0311 + 1000x0312 + 1000x0313 + 
1000x0401 + 0x0402 + 1000x0403 + 1000x0404 + 1000x0405 + 1000x0406 + 8x0407 + 10x0408 + 1000x0409 + 1000x0410 + 1000x0411 + 1000x0412 + 1000x0413 + 
1000x0501 + 1000x0502 + 0x0503 + 7x0504 + 8x0505 + 1000x0506 + 1000x0507 + 1000x0508 + 1000x0509 + 1000x0510 + 1000x0511 + 1000x0512 + 1000x0513 + 
1000x0601 + 4x0602 + 1000x0603 + 0x0604 + 8x0605 + 9x0606 + 1000x0607 + 11x0608 + 1000x0609 + 1000x0610 + 1000x0611 + 1000x0612 + 1000x0613 + 
1000x0701 + 1000x0702 + 1000x0703 + 1000x0704 + 0x0705 + 8x0706 + 1000x0707 + 1000x0708 + 1000x0709 + 1000x0710 + 1000x0711 + 1000x0712 + 1000x0713 + 
1000x0801 + 1000x0802 + 1000x0803 + 1000x0804 + 1000x0805 + 0x0806 + 1000x0807 + 5x0808 + 4x0809 + 1000x0810 + 1000x0811 + 0x0812 + 1000x0813 + 
1000x0901 + 1000x0902 + 1000x0903 + 1000x0904 + 1000x0905 + 7x0906 + 0x0907 + 8x0908 + 1000x0909 + 1000x0910 + 1000x0911 + 1000x0912 + 1000x0913 + 
1000x1001 + 1000x1002 + 1000x1003 + 1000x1004 + 1000x1005 + 1000x1006 + 1000x1007 + 0x1008 + 4x1009 + 1000x1010 + 1000x1011 + 1000x1012 + 0x1013 + 
1000x1101 + 1000x1102 + 1000x1103 + 1000x1104 + 1000x1105 + 1000x1106 + 1000x1107 + 1000x1108 + 0x1109 + 1000x1110 + 1000x1111 + 1000x1112 + 1000x1113 + 
10x1201 + 6x1202 + 1000x1203 + 1000x1204 + 1000x1205 + 1000x1206 + 1000x1207 + 1000x1208 + 1000x1209 + 0x1210 + 6x1211 + 1000x1212 + 1000x1213 + 
1000x1301 + 1000x1302 + 1000x1303 + 1000x1304 + 1000x1305 + 1000x1306 + 3x1307 + 2x1308 + 1000x1309 + 1000x1310 + 0x1311 + 1000x1312 + 1000x1313;

/* Restricciones de Suministros */
x0101 + x0102 + x0103 + x0104 + x0105 + x0106 + x0107 + x0108 + x0109 + x0110 + x0111 + x0112 + x0113 <= 7;
x0201 + x0202 + x0203 + x0204 + x0205 + x0206 + x0207 + x0208 + x0209 + x0210 + x0211 + x0212 + x0213 <= 5;
x0301 + x0302 + x0303 + x0304 + x0305 + x0306 + x0307 + x0308 + x0309 + x0310 + x0311 + x0312 + x0313 <= 12;
x0401 + x0402 + x0403 + x0404 + x0405 + x0406 + x0407 + x0408 + x0409 + x0410 + x0411 + x0412 + x0413 <= 41;
x0501 + x0502 + x0503 + x0504 + x0505 + x0506 + x0507 + x0508 + x0509 + x0510 + x0511 + x0512 + x0513 <= 12;
x0601 + x0602 + x0603 + x0604 + x0605 + x0606 + x0607 + x0608 + x0609 + x0610 + x0611 + x0612 + x0613 <= 24;
x0701 + x0702 + x0703 + x0704 + x0705 + x0706 + x0707 + x0708 + x0709 + x0710 + x0711 + x0712 + x0713 <= 36;
x0801 + x0802 + x0803 + x0804 + x0805 + x0806 + x0807 + x0808 + x0809 + x0810 + x0811 + x0812 + x0813 <= 118;
x0901 + x0902 + x0903 + x0904 + x0905 + x0906 + x0907 + x0908 + x0909 + x0910 + x0911 + x0912 + x0913 <= 58;
x1001 + x1002 + x1003 + x1004 + x1005 + x1006 + x1007 + x1008 + x1009 + x1010 + x1011 + x1012 + x1013 <= 246;
x1101 + x1102 + x1103 + x1104 + x1105 + x1106 + x1107 + x1108 + x1109 + x1110 + x1111 + x1112 + x1113 <= 364;
x1201 + x1202 + x1203 + x1204 + x1205 + x1206 + x1207 + x1208 + x1209 + x1210 + x1211 + x1212 + x1213 <= 5;
x1301 + x1302 + x1303 + x1304 + x1305 + x1306 + x1307 + x1308 + x1309 + x1310 + x1311 + x1312 + x1313 <= 5;

/* Restricciones de Demanda */
x0101 + x0201 + x0301 + x0401 + x0501 + x0601 + x0701 + x0801 + x0901 + x1001 + x1101 + x1201 + x1301 >= 12;
x0102 + x0202 + x0302 + x0402 + x0502 + x0602 + x0702 + x0802 + x0902 + x1002 + x1102 + x1202 + x1302 >= 41;
x0103 + x0203 + x0303 + x0403 + x0503 + x0603 + x0703 + x0803 + x0903 + x1003 + x1103 + x1203 + x1303 >= 12;
x0104 + x0204 + x0304 + x0404 + x0504 + x0604 + x0704 + x0804 + x0904 + x1004 + x1104 + x1204 + x1304 >= 24;
x0105 + x0205 + x0305 + x0405 + x0505 + x0605 + x0705 + x0805 + x0905 + x1005 + x1105 + x1205 + x1305 >= 36;
x0106 + x0206 + x0306 + x0406 + x0506 + x0606 + x0706 + x0806 + x0906 + x1006 + x1106 + x1206 + x1306 >= 118;
x0107 + x0207 + x0307 + x0407 + x0507 + x0607 + x0707 + x0807 + x0907 + x1007 + x1107 + x1207 + x1307 >= 58;
x0108 + x0208 + x0308 + x0408 + x0508 + x0608 + x0708 + x0808 + x0908 + x1008 + x1108 + x1208 + x1308 >= 246;
x0109 + x0209 + x0309 + x0409 + x0509 + x0609 + x0709 + x0809 + x0909 + x1009 + x1109 + x1209 + x1309 >= 364;
x0110 + x0210 + x0310 + x0410 + x0510 + x0610 + x0710 + x0810 + x0910 + x1010 + x1110 + x1210 + x1310 >= 5;
x0111 + x0211 + x0311 + x0411 + x0511 + x0611 + x0711 + x0811 + x0911 + x1011 + x1111 + x1211 + x1311 >= 5;
x0112 + x0212 + x0312 + x0412 + x0512 + x0612 + x0712 + x0812 + x0912 + x1012 + x1112 + x1212 + x1312 >= 6;
x0113 + x0213 + x0313 + x0413 + x0513 + x0613 + x0713 + x0813 + x0913 + x1013 + x1113 + x1213 + x1313 >= 6;

int
x0101 , x0102 , x0103 , x0104 , x0105 , x0106 , x0107 , x0108 , x0109 , x0110 , x0111 , x0112 , x0113 , 
x0201 , x0202 , x0203 , x0204 , x0205 , x0206 , x0207 , x0208 , x0209 , x0210 , x0211 , x0212 , x0213 , 
x0301 , x0302 , x0303 , x0304 , x0305 , x0306 , x0307 , x0308 , x0309 , x0310 , x0311 , x0312 , x0313 , 
x0401 , x0402 , x0403 , x0404 , x0405 , x0406 , x0407 , x0408 , x0409 , x0410 , x0411 , x0412 , x0413 , 
x0501 , x0502 , x0503 , x0504 , x0505 , x0506 , x0507 , x0508 , x0509 , x0510 , x0511 , x0512 , x0513 , 
x0601 , x0602 , x0603 , x0604 , x0605 , x0606 , x0607 , x0608 , x0609 , x0610 , x0611 , x0612 , x0613 , 
x0701 , x0702 , x0703 , x0704 , x0705 , x0706 , x0707 , x0708 , x0709 , x0710 , x0711 , x0712 , x0713 , 
x0801 , x0802 , x0803 , x0804 , x0805 , x0806 , x0807 , x0808 , x0809 , x0810 , x0811 , x0812 , x0813 , 
x0901 , x0902 , x0903 , x0904 , x0905 , x0906 , x0907 , x0908 , x0909 , x0910 , x0911 , x0912 , x0913 , 
x1001 , x1002 , x1003 , x1004 , x1005 , x1006 , x1007 , x1008 , x1009 , x1010 , x1011 , x1012 , x1013 , 
x1101 , x1102 , x1103 , x1104 , x1105 , x1106 , x1107 , x1108 , x1109 , x1110 , x1111 , x1112 , x1113 , 
x1201 , x1202 , x1203 , x1204 , x1205 , x1206 , x1207 , x1208 , x1209 , x1210 , x1211 , x1212 , x1213 , 
x1301 , x1302 , x1303 , x1304 , x1305 , x1306 , x1307 , x1308 , x1309 , x1310 , x1311 , x1312 , x1313;
